p cnf 14 64
6 -9 -10 0
1 6 9 0
6 7 8 0
1 -3 -7 0
-3 -6 -10 0
4 7 -13 0
-3 -8 11 0
-1 -3 -10 0
-1 -10 -11 0
1 -10 13 0
1 -12 -14 0
-2 6 -12 0
7 -12 -14 0
5 6 12 0
-1 -2 -13 0
-7 -8 11 0
-3 6 9 0
-1 -5 8 0
1 2 -8 0
-7 -9 -12 0
-1 2 12 0
1 -8 12 0
-2 9 14 0
6 -13 -14 0
1 2 -10 0
-1 -4 -8 0
-7 11 13 0
7 -8 9 0
-4 -9 -12 0
-3 9 -11 0
1 2 -9 0
2 6 -11 0
4 5 -7 0
1 -2 -6 0
-1 2 13 0
-10 -11 14 0
3 4 -13 0
7 10 -13 0
-2 -10 -11 0
4 6 -12 0
2 3 14 0
-2 -13 14 0
-2 -3 -12 0
1 7 -12 0
3 -13 -14 0
3 5 11 0
-7 8 -11 0
1 -7 13 0
-3 4 -5 0
6 10 -11 0
-6 -11 -12 0
2 -6 7 0
-9 -11 -13 0
3 -10 14 0
-4 -6 12 0
5 -7 -11 0
-4 13 14 0
-6 12 13 0
-6 -8 13 0
-5 12 13 0
-2 -3 -10 0
-4 -5 -12 0
3 8 12 0
1 2 -6 0
